\* Advertisment_Problem *\
Maximize
OBJ: 27 x1 + 9 x2 + 9 x3 + 11 x4
Subject To
_C1: x1 + x2 + x3 + x4 <= 210000
_C2: x1 <= 70000
_C3: - 0.25 x1 + x2 >= 0
_C4: x3 >= 24000
_C5: x4 <= 28000
End
